; benchmark generated from python API
(set-info :status unknown)
(declare-datatypes ((RealState 0)) (((RMk1 (rval1 Real)) (RMk2 (rval2 Real)))))
 (assert
 (forall ((|v9:0| Real) )(exists ((|v8:1_st| RealState) (val!385 Real) )(forall ((|v7:2| Real) )(exists ((|v6:3_st| RealState) (val!386 Real) )(forall ((|v5:4| Real) )(exists ((|v4:5_st| RealState) (val!387 Real) )(forall ((|v3:6| Real) )(exists ((|v2:7_st| RealState) (val!388 Real) )(forall ((|v1:8| Real) )(exists ((|v0:9_st| RealState) (val!389 Real) )(let (($x630 (<= (+ (+ (* 5.0 (rval2 |v6:3_st|)) (* 8.0 |v5:4|)) (* (- 13.0) |v5:4|)) 13.0)))
 (let (($x90 (<= (+ (+ (* (- 2.0) |v1:8|) (* (- 17.0) |v7:2|)) (* 4.0 |v3:6|)) 13.0)))
 (let ((?x1335 (- 7.0)))
 (let ((?x336 (+ (+ (* (- 17.0) (rval2 |v6:3_st|)) (* 3.0 (rval2 |v4:5_st|))) (* (- 10.0) (rval2 |v6:3_st|)))))
 (let ((?x540 (- 1.0)))
 (let ((?x1364 (+ (+ (* 0.0 (rval2 |v0:9_st|)) (* 3.0 |v9:0|)) (* (- 19.0) (rval2 |v8:1_st|)))))
 (let (($x137 (<= (+ (+ (* ?x540 |v3:6|) (* (- 8.0) |v3:6|)) (* (- 12.0) |v3:6|)) 15.0)))
 (let (($x1107 (<= (+ (+ (* (- 18.0) |v5:4|) (* (- 18.0) |v1:8|)) (* 3.0 |v1:8|)) ?x540)))
 (let ((?x890 (+ (+ (* (- 16.0) (rval2 |v0:9_st|)) (* 19.0 (rval2 |v8:1_st|))) (* 18.0 |v1:8|))))
 (let (($x446 (and (and (or (<= ?x890 16.0) $x1107) (and $x137 (<= ?x1364 ?x540))) (and (<= ?x336 ?x1335) (and $x90 $x630)))))
 (let ((?x546 (- 9.0)))
 (let ((?x1092 (+ (+ (* 4.0 (rval2 |v0:9_st|)) (* (- 6.0) |v3:6|)) (* (- 5.0) (rval2 |v0:9_st|)))))
 (let (($x1356 (<= (+ (+ (* (- 8.0) (rval2 |v2:7_st|)) |v5:4|) (* (- 5.0) |v3:6|)) 14.0)))
 (let (($x296 (<= (+ (+ (* 14.0 |v7:2|) (* 0.0 |v7:2|)) (* 10.0 (rval2 |v2:7_st|))) 19.0)))
 (let ((?x796 (rval2 |v2:7_st|)))
 (let ((?x407 (* 10.0 ?x796)))
 (let (($x77 (<= (+ (+ (* 14.0 (rval2 |v0:9_st|)) (* (- 6.0) ?x796)) ?x407) 5.0)))
 (let (($x1105 (<= (+ (+ (* (- 10.0) |v9:0|) (* 14.0 |v1:8|)) (* 5.0 |v5:4|)) ?x1335)))
 (let ((?x521 (+ (+ (* (- 5.0) (rval2 |v6:3_st|)) (* ?x1335 |v1:8|)) (* (- 20.0) (rval2 |v4:5_st|)))))
 (let ((?x120 (+ (+ (* 20.0 |v3:6|) (* (- 8.0) (rval2 |v8:1_st|))) (* (- 18.0) (rval2 |v6:3_st|)))))
 (let (($x740 (and (<= ?x120 3.0) (<= (+ (+ (* 13.0 (rval2 |v4:5_st|)) (* 8.0 |v7:2|)) |v3:6|) 20.0))))
 (let (($x524 (or (or $x740 (and (<= ?x521 12.0) $x1105)) (and (or $x77 $x296) (or $x1356 (<= ?x1092 ?x546))))))
 (let ((?x522 (- 17.0)))
 (let (($x191 (<= (+ (+ (* 0.0 |v7:2|) (* 8.0 (rval2 |v4:5_st|))) (* (- 6.0) |v9:0|)) ?x522)))
 (let (($x945 (not (= |v0:9_st| (RMk1 val!389)))))
 (let (($x729 (not (= |v2:7_st| (RMk1 val!388)))))
 (let (($x655 (not (= |v4:5_st| (RMk1 val!387)))))
 (let (($x501 (not (= |v6:3_st| (RMk1 val!386)))))
 (let (($x699 (not (= |v8:1_st| (RMk1 val!385)))))
 (and $x699 $x501 $x655 $x729 $x945 (or $x191 (or $x524 $x446)))))))))))))))))))))))))))))))))
 )
 )
 )
 )
 )
 )
 )
 )
 )
 )
(check-sat)
